NAME : U--M-n101-k10.819557.tour
COMMENT : Cost = 0_819557
COMMENT : Found by LKH [Keld Helsgaun] Wed Sep 13 14:31:04 2017
TYPE : TOUR
DIMENSION : 110
TOUR_SECTION
1
21
25
26
28
30
31
29
27
24
23
22
102
91
88
87
84
83
85
86
89
90
92
109
6
4
8
9
12
10
7
5
3
2
76
107
70
69
65
62
73
81
80
78
74
71
72
77
79
82
106
100
101
98
94
93
95
96
97
99
104
68
66
64
75
63
67
105
56
55
54
57
59
61
60
58
108
44
43
42
41
45
47
46
49
52
51
53
50
48
110
14
18
19
20
16
17
15
13
11
103
33
34
32
36
38
39
40
37
35
-1
EOF
